(set-logic LIA)
(declare-var conf_0 Int)
(declare-var conf_0! Int)
(declare-var n Int)
(declare-var n! Int)
(declare-var x Int)
(declare-var x! Int)
(declare-var y Int)
(declare-var y! Int)
(declare-var conf_0_0 Int)
(declare-var conf_0_0! Int)
(declare-var conf_0_1 Int)
(declare-var conf_0_1! Int)
(declare-var conf_0_2 Int)
(declare-var conf_0_2! Int)
(declare-var conf_0_3 Int)
(declare-var conf_0_3! Int)
(declare-var n_0 Int)
(declare-var n_0! Int)
(declare-var x_0 Int)
(declare-var x_0! Int)
(declare-var x_1 Int)
(declare-var x_1! Int)
(declare-var x_2 Int)
(declare-var x_2! Int)
(declare-var x_3 Int)
(declare-var x_3! Int)
(declare-var y_0 Int)
(declare-var y_0! Int)
(declare-var y_1 Int)
(declare-var y_1! Int)
(declare-var y_2 Int)
(declare-var y_2! Int)
(declare-var y_3 Int)
(declare-var y_3! Int)
(synth-fun inv-f((parameter0 Int)(parameter1 Int)(parameter2 Int)(parameter3 Int)(parameter4 Int)(parameter5 Int)(parameter6 Int)(parameter7 Int)(parameter8 Int)(parameter9 Int)(parameter10 Int)(parameter11 Int)(parameter12 Int)(parameter13 Int)(parameter14 Int)(parameter15 Int)(parameter16 Int))Bool) 
(constraint (=> (and (= conf_0 conf_0_0) (= n n_0) (= x x_1) (= y y_1) (= conf_0_0 3) (>= n_0 0) (= x_1 n_0) (= y_1 0) )(inv-f conf_0 n x y conf_0_0 conf_0_1 conf_0_2 conf_0_3 n_0 x_0 x_1 x_2 x_3 y_0 y_1 y_2 y_3 )))
(constraint (=> (and (inv-f conf_0 n x y conf_0_0 conf_0_1 conf_0_2 conf_0_3 n_0 x_0 x_1 x_2 x_3 y_0 y_1 y_2 y_3 ) (or (and (= conf_0_1 conf_0) (= x_2 x) (= y_2 y) (= conf_0_1 conf_0!) (= x_2 x!) (= y_2 y!) (= conf_0 conf_0!) (= n n!) (= y y!) ) (and (= conf_0_1 conf_0) (= x_2 x) (= y_2 y) (> x_2 0) (= y_3 (+ y_2 1 )) (= conf_0_2 conf_0_1) (= x_3 (- x_2 1)) (= conf_0_3 778) (= conf_0_3 conf_0!) (= x_3 x!) (= y_3 y!) (= n n_0) (= n! n_0) ) ) )(inv-f conf_0! n! x! y! conf_0_0! conf_0_1! conf_0_2! conf_0_3! n_0! x_0! x_1! x_2! x_3! y_0! y_1! y_2! y_3! )))
(constraint (=> (inv-f conf_0 n x y conf_0_0 conf_0_1 conf_0_2 conf_0_3 n_0 x_0 x_1 x_2 x_3 y_0 y_1 y_2 y_3 )(or (not (and (= conf_0 conf_0_1) (= n n_0) (= x x_2) (= y y_2) )) (not (and (not (> x_2 0)) (not (= y_2 n_0)) )) )))
(check-synth)

